(declare-fun y () Int)
(declare-fun x () Int)

(assert (
and (and (and (and (
= (* x 4) (/ (* (/ 88 15) y) (/ 100 60))
) (
= (* (* (* 9 5) (/ 33 37)) y) x
)) (and (
< (* 33 y) (- x (* (* (* x x) 11) 64))
) (
not (= (* (/ 70 24) y) (+ 28 (* (- x x) 84)))
))) (and (and (
< (* (/ x x) (+ (/ x x) 80)) (/ y (* (/ 33 28) 51))
) (
<= (- x x) (/ (* 27 y) 73)
)) (
> (/ (* 95 y) (/ 11 85)) x
))) (and (and (and (
<= (* (* 27 y) (* 16 (/ 100 (/ (* 11 74) (/ 29 1))))) (/ x x)
) (
>= (* (* (/ 9 x) 100) (- x 76)) (/ y (/ (/ 7 92) 12))
)) (
>= (* 98 y) (- (- (/ 8 26) x) x)
)) (and (and (
not (= (/ (/ y (* 24 54)) 7) (+ 39 x))
) (
= (+ (+ x x) (/ 100 43)) (* y (* 4 (* (/ 51 76) 28)))
)) (
> y (* 58 (* (* x 2) 89))
)))
))